0 1 9 1 7 1 5 1 0 4 0 0 0 0 
0 1 9 1 7 1 5 1 2 5 
2 1 10 1 9 1 7 1 4 5 
12 1 12 1 10 1 7 1 9 5 
0 1 9 1 7 1 5 1 0 4 0 0 0 0 
0 1 9 1 7 1 5 1 2 5 
2 1 10 1 9 1 7 1 12 1 12 1 12 1 12 1 14 1 12 1 10 1 7 1 5 3 12 3 
9 1 9 1 9 3 9 1 9 1 9 3 9 1 12 1 5 2 7 0 9 5 
10 1 10 1 10 1 10 1 10 1 9 1 9 1 9 0 9 0 9 1 7 1 7 1 9 1 7 3 12 3 
9 1 9 1 9 3 9 1 9 1 9 3 9 1 12 1 5 2 7 0 9 5 
10 1 10 1 10 1 10 1 10 1 9 1 9 1 9 0 9 0 12 1 10 1 7 1 4 1 5 5 
9 1 9 1 9 3 9 1 9 1 9 3 9 1 12 1 5 2 7 0 9 5 
10 1 10 1 10 1 10 1 10 1 9 1 9 1 9 0 9 0 9 1 7 1 7 1 9 1 7 3 12 3 
9 1 9 1 9 3 9 1 9 1 9 3 9 1 12 1 5 2 7 0 9 5 
10 1 10 1 10 1 10 1 10 1 9 1 9 1 9 0 9 0 12 1 10 1 7 1 4 1 5 5 